files/input3.in
1
6 6
4.83 0 3.71 0 2.86 0 2.2 0 1.69 0 1 0
1 0 0 0 0 0 1.4 0
1.69 1 0 0 0 0 1.96 0
2.2 1.69 1 0 0 0 2.74 0
2.86 2.2 1.69 1 0 0 3.84 0
3.71 2.86 2.2 1.69 1 0 5.38 0
4.83 3.71 2.86 2.2 1.69 1 7.53 0
